(declare-sort $$unsorted 0)
(declare-fun tptp.op ($$unsorted $$unsorted) $$unsorted)
(assert (forall ((X0 $$unsorted) (X1 $$unsorted) (X2 $$unsorted)) (= X0 (tptp.op X0 (tptp.op (tptp.op X1 (tptp.op X1 X2)) X1)))))
(assert (not (forall ((X0 $$unsorted) (X1 $$unsorted) (X2 $$unsorted)) (let ((_let_1 (tptp.op X1 X1))) (= X0 (tptp.op X0 (tptp.op _let_1 _let_1)))))))
(set-info :filename Equation1052_implies_Equation846)
(check-sat-assuming ( true ))
